
  22    4
  10   10   10   10

   0   0   0   0   0   7 2 3 4 6 7 8 9 
   8  10  10  10  10   5 21 20 12 10 5 
   8  10  10  10  10   5 19 18 17 15 11 
   9  10  10  10  10   4 18 17 15 11 
   9  10  10  10  10   4 19 18 14 13 
   4  10  10  10  10   4 21 16 15 12 
   7  10  10  10  10   4 19 16 15 12 
  10  10  10  10  10   4 18 17 15 14 
   4  10  10  10  10   3 20 15 12 
   3  10  10  10  10   2 15 11 
   4  10  10  10  10   2 16 14 
   2  10  10  10  10   1 14 
   9  10  10  10  10   1 17 
   1  10  10  10  10   1 22
   7  10  10  10  10   1 22
   8  10  10  10  10   1 22
   8  10  10  10  10   1 22
   7  10  10  10  10   1 22
   6  10  10  10  10   1 22
   3  10  10  10  10   1 22
   9  10  10  10  10   1 22
   0   0   0   0   0   0 
